NAME           C:\Bruker\Hvattum\knapsack\Problems\class1\100-5-25.mps
ROWS
 N  OBJ
 L  CONSTR1
 L  CONSTR2
 L  CONSTR3
 L  CONSTR4
 L  CONSTR5
COLUMNS
    INT0001   'MARKER'  'INTORG'
    X1        OBJ       757
    X1        CONSTR1   356
    X1        CONSTR2   98
    X1        CONSTR3   581
    X1        CONSTR4   873
    X1        CONSTR5   70
    X2        OBJ       679
    X2        CONSTR1   787
    X2        CONSTR2   162
    X2        CONSTR3   89
    X2        CONSTR4   526
    X2        CONSTR5   357
    X3        OBJ       852
    X3        CONSTR1   241
    X3        CONSTR2   286
    X3        CONSTR3   968
    X3        CONSTR4   987
    X3        CONSTR5   888
    X4        OBJ       1225
    X4        CONSTR1   469
    X4        CONSTR2   976
    X4        CONSTR3   879
    X4        CONSTR4   972
    X4        CONSTR5   458
    X5        OBJ       770
    X5        CONSTR1   507
    X5        CONSTR2   819
    X5        CONSTR3   409
    X5        CONSTR4   444
    X5        CONSTR5   373
    X6        OBJ       282
    X6        CONSTR1   6
    X6        CONSTR2   245
    X6        CONSTR3   474
    X6        CONSTR4   493
    X6        CONSTR5   124
    X7        OBJ       783
    X7        CONSTR1   152
    X7        CONSTR2   467
    X7        CONSTR3   877
    X7        CONSTR4   293
    X7        CONSTR5   344
    X8        OBJ       934
    X8        CONSTR1   603
    X8        CONSTR2   978
    X8        CONSTR3   569
    X8        CONSTR4   520
    X8        CONSTR5   901
    X9        OBJ       760
    X9        CONSTR1   384
    X9        CONSTR2   31
    X9        CONSTR3   320
    X9        CONSTR4   521
    X9        CONSTR5   357
    X10       OBJ       1133
    X10       CONSTR1   715
    X10       CONSTR2   619
    X10       CONSTR3   853
    X10       CONSTR4   605
    X10       CONSTR5   972
    X11       OBJ       627
    X11       CONSTR1   832
    X11       CONSTR2   56
    X11       CONSTR3   241
    X11       CONSTR4   607
    X11       CONSTR5   610
    X12       OBJ       598
    X12       CONSTR1   370
    X12       CONSTR2   453
    X12       CONSTR3   577
    X12       CONSTR4   184
    X12       CONSTR5   167
    X13       OBJ       672
    X13       CONSTR1   725
    X13       CONSTR2   106
    X13       CONSTR3   970
    X13       CONSTR4   933
    X13       CONSTR5   183
    X14       OBJ       558
    X14       CONSTR1   95
    X14       CONSTR2   467
    X14       CONSTR3   889
    X14       CONSTR4   485
    X14       CONSTR5   620
    X15       OBJ       1057
    X15       CONSTR1   75
    X15       CONSTR2   948
    X15       CONSTR3   652
    X15       CONSTR4   609
    X15       CONSTR5   592
    X16       OBJ       569
    X16       CONSTR1   433
    X16       CONSTR2   676
    X16       CONSTR3   753
    X16       CONSTR4   401
    X16       CONSTR5   579
    X17       OBJ       961
    X17       CONSTR1   914
    X17       CONSTR2   399
    X17       CONSTR3   497
    X17       CONSTR4   416
    X17       CONSTR5   459
    X18       OBJ       1086
    X18       CONSTR1   945
    X18       CONSTR2   351
    X18       CONSTR3   812
    X18       CONSTR4   107
    X18       CONSTR5   815
    X19       OBJ       715
    X19       CONSTR1   71
    X19       CONSTR2   24
    X19       CONSTR3   661
    X19       CONSTR4   289
    X19       CONSTR5   430
    X20       OBJ       715
    X20       CONSTR1   91
    X20       CONSTR2   607
    X20       CONSTR3   219
    X20       CONSTR4   747
    X20       CONSTR5   613
    X21       OBJ       825
    X21       CONSTR1   810
    X21       CONSTR2   528
    X21       CONSTR3   355
    X21       CONSTR4   71
    X21       CONSTR5   971
    X22       OBJ       532
    X22       CONSTR1   95
    X22       CONSTR2   928
    X22       CONSTR3   34
    X22       CONSTR4   246
    X22       CONSTR5   734
    X23       OBJ       682
    X23       CONSTR1   162
    X23       CONSTR2   86
    X23       CONSTR3   863
    X23       CONSTR4   723
    X23       CONSTR5   456
    X24       OBJ       823
    X24       CONSTR1   52
    X24       CONSTR2   143
    X24       CONSTR3   720
    X24       CONSTR4   362
    X24       CONSTR5   389
    X25       OBJ       687
    X25       CONSTR1   140
    X25       CONSTR2   201
    X25       CONSTR3   508
    X25       CONSTR4   337
    X25       CONSTR5   652
    X26       OBJ       499
    X26       CONSTR1   386
    X26       CONSTR2   89
    X26       CONSTR3   152
    X26       CONSTR4   174
    X26       CONSTR5   620
    X27       OBJ       907
    X27       CONSTR1   645
    X27       CONSTR2   482
    X27       CONSTR3   317
    X27       CONSTR4   401
    X27       CONSTR5   655
    X28       OBJ       639
    X28       CONSTR1   75
    X28       CONSTR2   336
    X28       CONSTR3   254
    X28       CONSTR4   691
    X28       CONSTR5   383
    X29       OBJ       598
    X29       CONSTR1   11
    X29       CONSTR2   595
    X29       CONSTR3   73
    X29       CONSTR4   836
    X29       CONSTR5   127
    X30       OBJ       991
    X30       CONSTR1   992
    X30       CONSTR2   653
    X30       CONSTR3   915
    X30       CONSTR4   371
    X30       CONSTR5   212
    X31       OBJ       615
    X31       CONSTR1   440
    X31       CONSTR2   441
    X31       CONSTR3   837
    X31       CONSTR4   609
    X31       CONSTR5   570
    X32       OBJ       840
    X32       CONSTR1   508
    X32       CONSTR2   785
    X32       CONSTR3   315
    X32       CONSTR4   263
    X32       CONSTR5   247
    X33       OBJ       647
    X33       CONSTR1   252
    X33       CONSTR2   777
    X33       CONSTR3   604
    X33       CONSTR4   142
    X33       CONSTR5   52
    X34       OBJ       637
    X34       CONSTR1   589
    X34       CONSTR2   767
    X34       CONSTR3   484
    X34       CONSTR4   544
    X34       CONSTR5   691
    X35       OBJ       1169
    X35       CONSTR1   769
    X35       CONSTR2   828
    X35       CONSTR3   797
    X35       CONSTR4   489
    X35       CONSTR5   894
    X36       OBJ       842
    X36       CONSTR1   906
    X36       CONSTR2   748
    X36       CONSTR3   956
    X36       CONSTR4   777
    X36       CONSTR5   13
    X37       OBJ       666
    X37       CONSTR1   603
    X37       CONSTR2   628
    X37       CONSTR3   315
    X37       CONSTR4   163
    X37       CONSTR5   593
    X38       OBJ       1048
    X38       CONSTR1   569
    X38       CONSTR2   637
    X38       CONSTR3   952
    X38       CONSTR4   886
    X38       CONSTR5   653
    X39       OBJ       596
    X39       CONSTR1   636
    X39       CONSTR2   171
    X39       CONSTR3   681
    X39       CONSTR4   323
    X39       CONSTR5   782
    X40       OBJ       807
    X40       CONSTR1   15
    X40       CONSTR2   510
    X40       CONSTR3   988
    X40       CONSTR4   359
    X40       CONSTR5   396
    X41       OBJ       677
    X41       CONSTR1   516
    X41       CONSTR2   455
    X41       CONSTR3   799
    X41       CONSTR4   385
    X41       CONSTR5   510
    X42       OBJ       729
    X42       CONSTR1   696
    X42       CONSTR2   244
    X42       CONSTR3   80
    X42       CONSTR4   632
    X42       CONSTR5   584
    X43       OBJ       616
    X43       CONSTR1   122
    X43       CONSTR2   521
    X43       CONSTR3   559
    X43       CONSTR4   600
    X43       CONSTR5   705
    X44       OBJ       921
    X44       CONSTR1   196
    X44       CONSTR2   589
    X44       CONSTR3   677
    X44       CONSTR4   515
    X44       CONSTR5   914
    X45       OBJ       371
    X45       CONSTR1   618
    X45       CONSTR2   130
    X45       CONSTR3   125
    X45       CONSTR4   372
    X45       CONSTR5   89
    X46       OBJ       907
    X46       CONSTR1   956
    X46       CONSTR2   626
    X46       CONSTR3   510
    X46       CONSTR4   770
    X46       CONSTR5   114
    X47       OBJ       900
    X47       CONSTR1   977
    X47       CONSTR2   315
    X47       CONSTR3   665
    X47       CONSTR4   966
    X47       CONSTR5   991
    X48       OBJ       851
    X48       CONSTR1   831
    X48       CONSTR2   909
    X48       CONSTR3   191
    X48       CONSTR4   614
    X48       CONSTR5   263
    X49       OBJ       598
    X49       CONSTR1   418
    X49       CONSTR2   567
    X49       CONSTR3   63
    X49       CONSTR4   243
    X49       CONSTR5   791
    X50       OBJ       726
    X50       CONSTR1   683
    X50       CONSTR2   62
    X50       CONSTR3   946
    X50       CONSTR4   41
    X50       CONSTR5   467
    X51       OBJ       708
    X51       CONSTR1   510
    X51       CONSTR2   936
    X51       CONSTR3   432
    X51       CONSTR4   41
    X51       CONSTR5   465
    X52       OBJ       646
    X52       CONSTR1   151
    X52       CONSTR2   401
    X52       CONSTR3   75
    X52       CONSTR4   1
    X52       CONSTR5   429
    X53       OBJ       754
    X53       CONSTR1   245
    X53       CONSTR2   445
    X53       CONSTR3   632
    X53       CONSTR4   887
    X53       CONSTR5   89
    X54       OBJ       1019
    X54       CONSTR1   96
    X54       CONSTR2   103
    X54       CONSTR3   887
    X54       CONSTR4   849
    X54       CONSTR5   834
    X55       OBJ       817
    X55       CONSTR1   197
    X55       CONSTR2   920
    X55       CONSTR3   456
    X55       CONSTR4   707
    X55       CONSTR5   658
    X56       OBJ       481
    X56       CONSTR1   657
    X56       CONSTR2   409
    X56       CONSTR3   71
    X56       CONSTR4   763
    X56       CONSTR5   268
    X57       OBJ       666
    X57       CONSTR1   88
    X57       CONSTR2   296
    X57       CONSTR3   433
    X57       CONSTR4   495
    X57       CONSTR5   42
    X58       OBJ       745
    X58       CONSTR1   346
    X58       CONSTR2   511
    X58       CONSTR3   18
    X58       CONSTR4   376
    X58       CONSTR5   73
    X59       OBJ       824
    X59       CONSTR1   453
    X59       CONSTR2   820
    X59       CONSTR3   864
    X59       CONSTR4   275
    X59       CONSTR5   450
    X60       OBJ       474
    X60       CONSTR1   416
    X60       CONSTR2   984
    X60       CONSTR3   191
    X60       CONSTR4   49
    X60       CONSTR5   730
    X61       OBJ       569
    X61       CONSTR1   595
    X61       CONSTR2   405
    X61       CONSTR3   22
    X61       CONSTR4   629
    X61       CONSTR5   170
    X62       OBJ       916
    X62       CONSTR1   566
    X62       CONSTR2   182
    X62       CONSTR3   659
    X62       CONSTR4   749
    X62       CONSTR5   488
    X63       OBJ       756
    X63       CONSTR1   308
    X63       CONSTR2   897
    X63       CONSTR3   702
    X63       CONSTR4   550
    X63       CONSTR5   532
    X64       OBJ       628
    X64       CONSTR1   398
    X64       CONSTR2   803
    X64       CONSTR3   440
    X64       CONSTR4   505
    X64       CONSTR5   21
    X65       OBJ       441
    X65       CONSTR1   715
    X65       CONSTR2   110
    X65       CONSTR3   784
    X65       CONSTR4   94
    X65       CONSTR5   244
    X66       OBJ       894
    X66       CONSTR1   429
    X66       CONSTR2   661
    X66       CONSTR3   579
    X66       CONSTR4   104
    X66       CONSTR5   547
    X67       OBJ       1053
    X67       CONSTR1   741
    X67       CONSTR2   724
    X67       CONSTR3   5
    X67       CONSTR4   721
    X67       CONSTR5   660
    X68       OBJ       770
    X68       CONSTR1   141
    X68       CONSTR2   369
    X68       CONSTR3   628
    X68       CONSTR4   765
    X68       CONSTR5   377
    X69       OBJ       881
    X69       CONSTR1   447
    X69       CONSTR2   867
    X69       CONSTR3   728
    X69       CONSTR4   75
    X69       CONSTR5   23
    X70       OBJ       631
    X70       CONSTR1   389
    X70       CONSTR2   329
    X70       CONSTR3   308
    X70       CONSTR4   369
    X70       CONSTR5   338
    X71       OBJ       856
    X71       CONSTR1   948
    X71       CONSTR2   724
    X71       CONSTR3   213
    X71       CONSTR4   170
    X71       CONSTR5   427
    X72       OBJ       700
    X72       CONSTR1   139
    X72       CONSTR2   205
    X72       CONSTR3   581
    X72       CONSTR4   840
    X72       CONSTR5   712
    X73       OBJ       678
    X73       CONSTR1   173
    X73       CONSTR2   418
    X73       CONSTR3   353
    X73       CONSTR4   258
    X73       CONSTR5   95
    X74       OBJ       722
    X74       CONSTR1   113
    X74       CONSTR2   236
    X74       CONSTR3   342
    X74       CONSTR4   480
    X74       CONSTR5   364
    X75       OBJ       944
    X75       CONSTR1   901
    X75       CONSTR2   266
    X75       CONSTR3   150
    X75       CONSTR4   689
    X75       CONSTR5   942
    X76       OBJ       963
    X76       CONSTR1   97
    X76       CONSTR2   852
    X76       CONSTR3   666
    X76       CONSTR4   90
    X76       CONSTR5   932
    X77       OBJ       502
    X77       CONSTR1   59
    X77       CONSTR2   396
    X77       CONSTR3   66
    X77       CONSTR4   4
    X77       CONSTR5   913
    X78       OBJ       538
    X78       CONSTR1   896
    X78       CONSTR2   66
    X78       CONSTR3   303
    X78       CONSTR4   783
    X78       CONSTR5   210
    X79       OBJ       627
    X79       CONSTR1   496
    X79       CONSTR2   346
    X79       CONSTR3   212
    X79       CONSTR4   481
    X79       CONSTR5   522
    X80       OBJ       862
    X80       CONSTR1   339
    X80       CONSTR2   854
    X80       CONSTR3   25
    X80       CONSTR4   763
    X80       CONSTR5   341
    X81       OBJ       816
    X81       CONSTR1   229
    X81       CONSTR2   503
    X81       CONSTR3   638
    X81       CONSTR4   317
    X81       CONSTR5   201
    X82       OBJ       904
    X82       CONSTR1   254
    X82       CONSTR2   521
    X82       CONSTR3   440
    X82       CONSTR4   833
    X82       CONSTR5   148
    X83       OBJ       984
    X83       CONSTR1   173
    X83       CONSTR2   607
    X83       CONSTR3   778
    X83       CONSTR4   526
    X83       CONSTR5   544
    X84       OBJ       565
    X84       CONSTR1   397
    X84       CONSTR2   7
    X84       CONSTR3   178
    X84       CONSTR4   345
    X84       CONSTR5   27
    X85       OBJ       803
    X85       CONSTR1   945
    X85       CONSTR2   83
    X85       CONSTR3   460
    X85       CONSTR4   590
    X85       CONSTR5   428
    X86       OBJ       374
    X86       CONSTR1   573
    X86       CONSTR2   342
    X86       CONSTR3   80
    X86       CONSTR4   73
    X86       CONSTR5   615
    X87       OBJ       564
    X87       CONSTR1   999
    X87       CONSTR2   143
    X87       CONSTR3   470
    X87       CONSTR4   286
    X87       CONSTR5   184
    X88       OBJ       623
    X88       CONSTR1   754
    X88       CONSTR2   651
    X88       CONSTR3   400
    X88       CONSTR4   553
    X88       CONSTR5   618
    X89       OBJ       878
    X89       CONSTR1   828
    X89       CONSTR2   990
    X89       CONSTR3   645
    X89       CONSTR4   306
    X89       CONSTR5   764
    X90       OBJ       1038
    X90       CONSTR1   145
    X90       CONSTR2   975
    X90       CONSTR3   937
    X90       CONSTR4   219
    X90       CONSTR5   618
    X91       OBJ       384
    X91       CONSTR1   403
    X91       CONSTR2   51
    X91       CONSTR3   192
    X91       CONSTR4   128
    X91       CONSTR5   119
    X92       OBJ       672
    X92       CONSTR1   804
    X92       CONSTR2   67
    X92       CONSTR3   6
    X92       CONSTR4   119
    X92       CONSTR5   409
    X93       OBJ       892
    X93       CONSTR1   802
    X93       CONSTR2   29
    X93       CONSTR3   801
    X93       CONSTR4   722
    X93       CONSTR5   511
    X94       OBJ       843
    X94       CONSTR1   38
    X94       CONSTR2   732
    X94       CONSTR3   692
    X94       CONSTR4   115
    X94       CONSTR5   995
    X95       OBJ       736
    X95       CONSTR1   324
    X95       CONSTR2   485
    X95       CONSTR3   58
    X95       CONSTR4   726
    X95       CONSTR5   607
    X96       OBJ       667
    X96       CONSTR1   906
    X96       CONSTR2   298
    X96       CONSTR3   14
    X96       CONSTR4   438
    X96       CONSTR5   377
    X97       OBJ       937
    X97       CONSTR1   344
    X97       CONSTR2   889
    X97       CONSTR3   56
    X97       CONSTR4   457
    X97       CONSTR5   886
    X98       OBJ       909
    X98       CONSTR1   98
    X98       CONSTR2   948
    X98       CONSTR3   933
    X98       CONSTR4   903
    X98       CONSTR5   292
    X99       OBJ       1000
    X99       CONSTR1   365
    X99       CONSTR2   871
    X99       CONSTR3   438
    X99       CONSTR4   353
    X99       CONSTR5   555
    X100      OBJ       443
    X100      CONSTR1   100
    X100      CONSTR2   206
    X100      CONSTR3   928
    X100      CONSTR4   463
    X100      CONSTR5   262
    INT0001   'MARKER'  'INTEND'
RHS
    RHS10001  CONSTR1   33727
    RHS10001  CONSTR2   36339
    RHS10001  CONSTR3   36746
    RHS10001  CONSTR4   35213
    RHS10001  CONSTR5   35615
BOUNDS
 BV BND       X1        .00
 BV BND       X2        .00
 BV BND       X3        .00
 BV BND       X4        .00
 BV BND       X5        .00
 BV BND       X6        .00
 BV BND       X7        .00
 BV BND       X8        .00
 BV BND       X9        .00
 BV BND       X10       .00
 BV BND       X11       .00
 BV BND       X12       .00
 BV BND       X13       .00
 BV BND       X14       .00
 BV BND       X15       .00
 BV BND       X16       .00
 BV BND       X17       .00
 BV BND       X18       .00
 BV BND       X19       .00
 BV BND       X20       .00
 BV BND       X21       .00
 BV BND       X22       .00
 BV BND       X23       .00
 BV BND       X24       .00
 BV BND       X25       .00
 BV BND       X26       .00
 BV BND       X27       .00
 BV BND       X28       .00
 BV BND       X29       .00
 BV BND       X30       .00
 BV BND       X31       .00
 BV BND       X32       .00
 BV BND       X33       .00
 BV BND       X34       .00
 BV BND       X35       .00
 BV BND       X36       .00
 BV BND       X37       .00
 BV BND       X38       .00
 BV BND       X39       .00
 BV BND       X40       .00
 BV BND       X41       .00
 BV BND       X42       .00
 BV BND       X43       .00
 BV BND       X44       .00
 BV BND       X45       .00
 BV BND       X46       .00
 BV BND       X47       .00
 BV BND       X48       .00
 BV BND       X49       .00
 BV BND       X50       .00
 BV BND       X51       .00
 BV BND       X52       .00
 BV BND       X53       .00
 BV BND       X54       .00
 BV BND       X55       .00
 BV BND       X56       .00
 BV BND       X57       .00
 BV BND       X58       .00
 BV BND       X59       .00
 BV BND       X60       .00
 BV BND       X61       .00
 BV BND       X62       .00
 BV BND       X63       .00
 BV BND       X64       .00
 BV BND       X65       .00
 BV BND       X66       .00
 BV BND       X67       .00
 BV BND       X68       .00
 BV BND       X69       .00
 BV BND       X70       .00
 BV BND       X71       .00
 BV BND       X72       .00
 BV BND       X73       .00
 BV BND       X74       .00
 BV BND       X75       .00
 BV BND       X76       .00
 BV BND       X77       .00
 BV BND       X78       .00
 BV BND       X79       .00
 BV BND       X80       .00
 BV BND       X81       .00
 BV BND       X82       .00
 BV BND       X83       .00
 BV BND       X84       .00
 BV BND       X85       .00
 BV BND       X86       .00
 BV BND       X87       .00
 BV BND       X88       .00
 BV BND       X89       .00
 BV BND       X90       .00
 BV BND       X91       .00
 BV BND       X92       .00
 BV BND       X93       .00
 BV BND       X94       .00
 BV BND       X95       .00
 BV BND       X96       .00
 BV BND       X97       .00
 BV BND       X98       .00
 BV BND       X99       .00
 BV BND       X100      .00
ENDATA
